CMPL model generation - running

CMPL version: 1.11.0
Authors: Thomas Schleiff, Mike Steglich
Distributed under the GPLv3 

create model instance ...
write model instance ...
CMPL model generation - finished

Solver - running


Welcome to IBM(R) ILOG(R) CPLEX(R) Interactive Optimizer 12.7.1.0
  with Simplex, Mixed Integer & Barrier Optimizers
5725-A06 5725-A29 5724-Y48 5724-Y49 5724-Y54 5724-Y55 5655-Y21
Copyright IBM Corp. 1988, 2017.  All Rights Reserved.

Type 'help' for a list of available commands.
Type 'help' followed by a command name for more
information on commands.

CPLEX> Specified objective sense: MINIMIZE
Selected objective  name:  line[1]
Selected RHS        name:  RHS
Selected bound      name:  BOUND
Problem '/tmp/cmpl.T24799.mps' read.
Read time = 0.06 sec. (10.16 ticks)
CPLEX> CPXPARAM_Read_APIEncoding                        "UTF-8"
Tried aggregator 3 times.
MIP Presolve eliminated 23632 rows and 36840 columns.
MIP Presolve modified 425 coefficients.
Aggregator did 1105 substitutions.
Reduced MIP has 3185 rows, 4510 columns, and 13344 nonzeros.
Reduced MIP has 4300 binaries, 0 generals, 0 SOSs, and 0 indicators.
Presolve time = 0.10 sec. (51.14 ticks)
Found incumbent of value 3379.082282 after 0.18 sec. (93.46 ticks)
Probing time = 0.01 sec. (2.88 ticks)
Tried aggregator 1 time.
MIP Presolve eliminated 0 rows and 6 columns.
Reduced MIP has 3185 rows, 4504 columns, and 13332 nonzeros.
Reduced MIP has 4504 binaries, 0 generals, 0 SOSs, and 0 indicators.
Presolve time = 0.01 sec. (10.98 ticks)
Probing time = 0.01 sec. (2.96 ticks)
Clique table members: 4022.
MIP emphasis: balance optimality and feasibility.
MIP search method: dynamic search.
Parallel mode: none, using 1 thread.
Root relaxation solution time = 0.02 sec. (13.15 ticks)

        Nodes                                         Cuts/
   Node  Left     Objective  IInf  Best Integer    Best Bound    ItCnt     Gap

*     0+    0                         3379.0823        0.0000           100.00%
*     0     0      integral     0      907.3019      907.3019      694    0.00%
Elapsed time = 0.24 sec. (132.49 ticks, tree = 0.00 MB, solutions = 2)

Root node processing (before b&c):
  Real time             =    0.24 sec. (134.08 ticks)
Sequential b&c:
  Real time             =    0.00 sec. (0.00 ticks)
                          ------------
Total (root+branch&cut) =    0.24 sec. (134.08 ticks)

Solution pool: 2 solutions saved.

MIP - Integer optimal solution:  Objective =  9.0730187900e+02
Solution time =    0.24 sec.  Iterations = 694  Nodes = 0
Deterministic time = 134.20 ticks  (555.74 ticks/sec)

CPLEX> Incumbent solution written to file '/tmp/cmpl.T24799.gsol'.
CPLEX> 
CMPL: Time used for model generation: 1 seconds
CMPL: Time used for solving the model: 1 seconds


Solution written to ASCII file: results/output_generated_conf_0.9/2016-12-05-5/fair-nonlinear.sol

Solver - finished
